Set parameter LicenseID to value 2609176
Set parameter TimeLimit to value 1800
Gurobi Optimizer version 11.0.3 build v11.0.3rc0 (linux64 - "Debian GNU/Linux 12 (bookworm)")

CPU model: AMD EPYC 7B12, instruction set [SSE2|AVX|AVX2]
Thread count: 4 physical cores, 8 logical processors, using up to 8 threads

Optimize a model with 2240 rows, 1024 columns and 40944 nonzeros
Model fingerprint: 0xcd0b1bbb
Variable types: 0 continuous, 1024 integer (1024 binary)
Coefficient statistics:
  Matrix range     [1e+00, 1e+00]
  Objective range  [0e+00, 0e+00]
  Bounds range     [1e+00, 1e+00]
  RHS range        [1e+00, 1e+00]
Presolve removed 824 rows and 38 columns
Presolve time: 0.16s
Presolved: 1416 rows, 986 columns, 29805 nonzeros
Variable types: 0 continuous, 986 integer (986 binary)
Error: invalid user locale; possible fix is to set the system environment
       variable 'LC_ALL' to a valid locale (e.g., to 'C')

Root relaxation: objective 0.000000e+00, 583 iterations, 0.04 seconds (0.05 work units)

    Nodes    |    Current Node    |     Objective Bounds      |     Work
 Expl Unexpl |  Obj  Depth IntInf | Incumbent    BestBd   Gap | It/Node Time

     0     0    0.00000    0  150          -    0.00000      -     -    0s
     0     0    0.00000    0  160          -    0.00000      -     -    0s
     0     0    0.00000    0  153          -    0.00000      -     -    0s
     0     0    0.00000    0  144          -    0.00000      -     -    0s
     0     0    0.00000    0  146          -    0.00000      -     -    1s
     0     0    0.00000    0  150          -    0.00000      -     -    1s
     0     0    0.00000    0  150          -    0.00000      -     -    1s
     0     0    0.00000    0  155          -    0.00000      -     -    1s
     0     0    0.00000    0  148          -    0.00000      -     -    1s
     0     0    0.00000    0  157          -    0.00000      -     -    1s
     0     0    0.00000    0  154          -    0.00000      -     -    1s
     0     2    0.00000    0  152          -    0.00000      -     -    2s
   621    17    0.00000   24   87          -    0.00000      -   197    5s
*  961    43              15       0.0000000    0.00000  0.00%   190    5s

Cutting planes:
  Cover: 2
  Clique: 161
  Zero half: 4

Explored 995 nodes (202596 simplex iterations) in 5.99 seconds (10.79 work units)
Thread count was 8 (of 8 available processors)

Solution count 1: 0 

Optimal solution found (tolerance 1.00e-04)
Best objective 0.000000000000e+00, best bound 0.000000000000e+00, gap 0.0000%
Giá trị Antibandwidth: 9
Các nhãn: [25, 28, 24, 5, 22, 8, 16, 21, 19, 29, 26, 14, 9, 4, 30, 1, 12, 32, 23, 6, 27, 10, 11, 31, 7, 17, 18, 15, 20, 2, 13, 3]
Bài toán Antibandwidth
